896947
7, 4, 66, 95, 73, 39, 14, 81, 86, 45, 87, 76, 38, 36, 72, 44, 55, 10, 56, 18, 69, 75, 6, 41, 77, 30, 96, 21, 20, 9, 33, 57, 47, 1, 48, 37, 74, 70, 32, 60, 31, 62, 49, 84, 92, 99, 93, 63, 13, 68, 80, 50, 88, 83, 15, 16, 82, 58, 61, 35, 97, 42, 91, 53, 8, 89, 85, 3, 5, 64, 2, 27, 67, 46, 28, 11, 23, 98, 54, 71, 34, 90, 59, 19, 12, 40, 51, 25, 78, 79, 29, 94, 26, 17, 24, 43, 52, 65, 22
